&control
  prefix = 'prefix'
  calculation = 'bands'
  pseudo_dir = '/home/user/QE/pseudo_potential/'
  outdir = './'
  verbosity = 'high'
  disk_io = 'low'
/
&system
  ibrav = 1
  celldm(1) = 7.67663317071 ! Bohr
  nat = 1
  ntyp = 1
  nbnd = 20
  ecutwfc = 20.0
  occupations = 'smearing'
  smearing = 'gauss'
  degauss = 0.03 ! Ry
/
&electrons
  conv_thr = 1.0d-8
/
ATOMIC_SPECIES
  Si 1.0 Si.upf
ATOMIC_POSITIONS {alat}
  Si 0.00 0.00 0.00
K_POINTS {tpiba_b}
3
-0.5 -0.5 -0.5 20
0.0 0.0 0.0 20
0.5 0.0 0.0 0

