&control
  prefix = 'prefix'
  calculation = 'bands'
  pseudo_dir = '/home/user/QE/pseudo_potential/'
  outdir = './'
  verbosity = 'high'
  disk_io = 'low'
/
&system
  ibrav = 2
  celldm(1) = 10.26
  nat = 2
  ntyp = 1
  nbnd = 10
  ecutwfc = 20.0
  occupations = 'fixed'
/
&electrons
  conv_thr = 1.0d-8
/
ATOMIC_SPECIES
  Si 1.0 Si.upf
ATOMIC_POSITIONS {alat}
  Si 0.00 0.00 0.00
  Si 0.25 0.25 0.25
K_POINTS {crystal_b}
3
 0.5 0.5 0.0 20
 0.0 0.0 0.0 20
 0.5 0.0 0.0 0
